c User generated cnf file
p cnf 11 48
-6 9 11 0 
9 2 -7 0 
-6 1 7 0 
11 10 -10 0 
11 -11 5 0 
8 9 -8 0 
3 -1 7 0 
7 -3 5 0 
-8 9 7 0 
11 -1 9 0 
9 -4 1 0 
3 3 -4 0 
-7 10 1 0 
5 -11 5 0 
1 8 -9 0 
8 -8 3 0 
10 -5 9 0 
7 -7 6 0 
-5 3 6 0 
9 -3 5 0 
8 -3 2 0 
2 -2 9 0 
11 5 -1 0 
-3 6 11 0 
-11 2 11 0 
3 -9 1 0 
7 -11 1 0 
4 6 -11 0 
-4 1 3 0 
11 4 -7 0 
-9 8 8 0 
6 -3 9 0 
2 -1 1 0 
-11 3 4 0 
-6 6 3 0 
4 10 -11 0 
-11 1 9 0 
-10 7 9 0 
5 8 -4 0 
-6 4 10 0 
6 -10 3 0 
1 1 -7 0 
10 4 -8 0 
-9 5 11 0 
7 11 -2 0 
9 11 -6 0 
7 -6 8 0 
-4 1 10 0 
